
--- Job JTW_HW5_IPmodel.gms Start 10/04/20 18:54:52 32.2.0 rc62c018 WEX-WEI x86 64bit/MS Windows
--- Applying:
    C:\GAMS\32\gmsprmNT.txt
--- GAMS Parameters defined
    Input "C:\Users\joshu\OneDrive - aggiemail.usu.edu\CourseWork\Fall 2020\CEE 5410 Water Systems Analysis\GitHub Respository\JTW_CEE5410_Repo\HW5 Dual and Integer\JTW_HW5_IPmodel.gms"
    PageWidth 80
    PageSize 0
    PageContr 3
    Action CE
    ScrDir "C:\Users\joshu\OneDrive - aggiemail.usu.edu\CourseWork\Fall 2020\CEE 5410 Water Systems Analysis\GitHub Respository\JTW_CEE5410_Repo\Output\225a\"
    SysDir C:\GAMS\32\
    WorkDir "C:\Users\joshu\OneDrive - aggiemail.usu.edu\CourseWork\Fall 2020\CEE 5410 Water Systems Analysis\GitHub Respository\JTW_CEE5410_Repo\Output\"
    LogOption 3
    DFormat 0
    TFormat 0
    ErrorLog 99
    IDE 1
GAMS 32.2.0   Copyright (C) 1987-2020 GAMS Development. All rights reserved
Licensee: Small MUD - 5 User License                     G200622/0001AP-GEN
          Utah State University, Utah Water Research Laboratory      DC7087
          C:\GAMS\32\gamslice.txt
--- Starting compilation
--- JTW_HW5_IPmodel.gms(96) 3 Mb
--- Starting execution: elapsed 0:00:00.113
--- Generating MIP model RES_MODEL
--- JTW_HW5_IPmodel.gms(92) 4 Mb
---   12 rows  14 columns  35 non-zeroes
---   4 discrete-columns
--- Executing CPLEX (Solvelink=2): elapsed 0:00:00.280

IBM ILOG CPLEX   32.2.0 rc62c018 Released Aug 26, 2020 WEI x86 64bit/MS Window
--- GAMS/Cplex Link licensed for continuous and discrete problems.
Cplex 12.10.0.0

Reading data...
Starting Cplex...
Space for names approximately 0.00 Mb
Use option 'names no' to turn use of names off
Version identifier: 12.10.0.0 | 2019-11-26 | 843d4de2ae
CPXPARAM_Advance                                 0
CPXPARAM_Simplex_Display                         2
CPXPARAM_Threads                                 1
CPXPARAM_Parallel                                1
CPXPARAM_MIP_Display                             4
CPXPARAM_MIP_Tolerances_AbsMIPGap                0
CPXPARAM_WorkDir                                 "C:\Users\joshu\OneDrive - aggiemail.usu.edu\CourseWork\Fall 2020\CEE 5410 Water Systems Analysis\GitHub Respository\JTW_CEE5410_Repo\Output\225a\"
Found incumbent of value 0.000000 after 0.00 sec. (0.00 ticks)
Tried aggregator 1 time.
MIP Presolve eliminated 1 rows and 1 columns.
MIP Presolve modified 1 coefficients.
Reduced MIP has 11 rows, 13 columns, and 30 nonzeros.
Reduced MIP has 4 binaries, 0 generals, 0 SOSs, and 0 indicators.
Presolve time = 0.02 sec. (0.02 ticks)
Probing fixed 0 vars, tightened 1 bounds.
Probing time = 0.00 sec. (0.00 ticks)
Tried aggregator 1 time.
Detecting symmetries...
MIP Presolve modified 1 coefficients.
Reduced MIP has 11 rows, 13 columns, and 30 nonzeros.
Reduced MIP has 4 binaries, 0 generals, 0 SOSs, and 0 indicators.
Presolve time = 0.00 sec. (0.02 ticks)
Probing time = 0.00 sec. (0.00 ticks)
Clique table members: 1.
MIP emphasis: balance optimality and feasibility.
MIP search method: dynamic search.
Parallel mode: none, using 1 thread.
Tried aggregator 1 time.
LP Presolve eliminated 0 rows and 1 columns.
Reduced LP has 11 rows, 12 columns, and 29 nonzeros.
Presolve time = 0.00 sec. (0.01 ticks)
Initializing dual steep norms . . .

Iteration      Dual Objective            In Variable           Out Variable
     1          112140.000000              X(far.t1)      IRR_DEM(t1) slack
     2          112140.000000                      A      IRR_DEM(t2) slack
     3          109585.000000              X(riv.t2)     MB_RIVER(t2) slack
     4          107100.000000              X(riv.t1)     MB_RIVER(t1) slack
     5          107100.000000              X(pmp.t1)              X(far.t1)
     6           97391.666667                  I(hi)      RES_CAP(t1) slack
     7           97391.666667              X(pmp.t2)      PMP_CAP(t2) slack
     8           97391.666667              X(far.t1)      PMP_CAP(t1) slack
     9           90100.780275                      J              X(riv.t1)
Initializing dual steep norms . . .
Root relaxation solution time = 0.02 sec. (0.03 ticks)

        Nodes                                         Cuts/
   Node  Left     Objective  IInf  Best Integer    Best Bound    ItCnt     Gap

*     0+    0                            0.0000   112140.0000              --- 
Found incumbent of value 0.000000 after 0.03 sec. (0.08 ticks)
      0     0    90100.7803     3        0.0000    90100.7803        9     --- 
*     0+    0                        89100.0000    90100.7803             1.12%
Found incumbent of value 89100.000000 after 0.05 sec. (0.10 ticks)
      0     0        cutoff          89100.0000                     11     --- 
Elapsed time = 0.05 sec. (0.14 ticks, tree = 0.01 MB, solutions = 2)

Root node processing (before b&c):
  Real time             =    0.05 sec. (0.14 ticks)
Sequential b&c:
  Real time             =    0.00 sec. (0.00 ticks)
                          ------------
Total (root+branch&cut) =    0.05 sec. (0.14 ticks)
MIP status(101): integer optimal solution
Cplex Time: 0.05sec (det. 0.14 ticks)
Fixing integer variables, and solving final LP...
Version identifier: 12.10.0.0 | 2019-11-26 | 843d4de2ae
CPXPARAM_Advance                                 2
CPXPARAM_Simplex_Display                         2
CPXPARAM_Threads                                 1
CPXPARAM_Parallel                                1
CPXPARAM_MIP_Display                             4
CPXPARAM_MIP_Tolerances_AbsMIPGap                0
CPXPARAM_WorkDir                                 "C:\Users\joshu\OneDrive - aggiemail.usu.edu\CourseWork\Fall 2020\CEE 5410 Water Systems Analysis\GitHub Respository\JTW_CEE5410_Repo\Output\225a\"
Tried aggregator 1 time.
LP Presolve eliminated 6 rows and 5 columns.
Reduced LP has 6 rows, 9 columns, and 17 nonzeros.
Presolve time = 0.00 sec. (0.01 ticks)
Initializing dual steep norms . . .

Iteration      Dual Objective            In Variable           Out Variable
     1  I          280.000000              X(far.t1)      IRR_DEM(t1) slack
     2  I          139.999998                      A      IRR_DEM(t2) slack
     3  I           69.999998              X(riv.t1)     MB_RIVER(t1) slack
     4  I            0.000000              X(riv.t2)     MB_RIVER(t2) slack
     5           89100.000000              X(pmp.t1)              X(riv.t1)
     6           89100.000000              X(pmp.t2)              X(riv.t2)
Fixed MIP status(1): optimal
Cplex Time: 0.00sec (det. 0.02 ticks)

Proven optimal solution.

MIP Solution:        89100.000000    (11 iterations, 0 nodes)
Final Solve:         89100.000000    (6 iterations)

Best possible:       89100.000000
Absolute gap:            0.000000
Relative gap:            0.000000

--- Reading solution for model RES_MODEL
--- Executing after solve: elapsed 0:00:00.491
--- JTW_HW5_IPmodel.gms(96) 4 Mb
--- GDX File C:\Users\joshu\OneDrive - aggiemail.usu.edu\CourseWork\Fall 2020\CEE 5410 Water Systems Analysis\GitHub Respository\JTW_CEE5410_Repo\Output\JTW_HW5_IP.gdx
*** Status: Normal completion
--- Job JTW_HW5_IPmodel.gms Stop 10/04/20 18:54:52 elapsed 0:00:00.528
